(benchmark gametime
:status unknown
:logic QF_AUFBV
:extrafuns ((gtINDEX68  BitVec[32]))
:extrafuns ((gtFIELD__bitsForTID0__gtAGG____anonstruct_D_Work_4  Array[32:32]))
:extrafuns ((gtINDEX69  BitVec[32]))
:extrafuns ((gtAGG__rtDWork  BitVec[32]))
:extrafuns ((gtINDEX66  BitVec[32]))
:extrafuns ((gtINDEX67  BitVec[32]))
:extrafuns ((gtINDEX64  BitVec[32]))
:extrafuns ((gtINDEX65  BitVec[32]))
:extrafuns ((gtINDEX62  BitVec[32]))
:extrafuns ((gtINDEX63  BitVec[32]))
:extrafuns ((gtINDEX61  BitVec[32]))
:extrafuns ((gtINDEX60  BitVec[32]))
:extrafuns ((gtINDEX59  BitVec[32]))
:extrafuns ((gtINDEX58  BitVec[32]))
:extrafuns ((gtINDEX56  BitVec[32]))
:extrafuns ((gtINDEX57  BitVec[32]))
:extrafuns ((gtINDEX54  BitVec[32]))
:extrafuns ((gtINDEX55  BitVec[32]))
:extrafuns ((gtINDEX52  BitVec[32]))
:extrafuns ((gtINDEX53  BitVec[32]))
:extrafuns ((gtINDEX50  BitVec[32]))
:extrafuns ((gtINDEX51  BitVec[32]))
:extrafuns ((gtINDEX48  BitVec[32]))
:extrafuns ((gtINDEX49  BitVec[32]))
:extrafuns ((gtINDEX46  BitVec[32]))
:extrafuns ((gtINDEX47  BitVec[32]))
:extrafuns ((gtINDEX44  BitVec[32]))
:extrafuns ((gtINDEX45  BitVec[32]))
:extrafuns ((gtINDEX42  BitVec[32]))
:extrafuns ((gtINDEX43  BitVec[32]))
:extrafuns ((gtINDEX40  BitVec[32]))
:extrafuns ((gtINDEX41  BitVec[32]))
:extrafuns ((gtINDEX39  BitVec[32]))
:extrafuns ((gtINDEX38  BitVec[32]))
:extrafuns ((gtINDEX36  BitVec[32]))
:extrafuns ((gtINDEX37  BitVec[32]))
:extrafuns ((gtINDEX34  BitVec[32]))
:extrafuns ((gtINDEX35  BitVec[32]))
:extrafuns ((gtINDEX32  BitVec[32]))
:extrafuns ((gtINDEX33  BitVec[32]))
:extrafuns ((gtINDEX31  BitVec[32]))
:extrafuns ((gtINDEX30  BitVec[32]))
:extrafuns ((gtINDEX29  BitVec[32]))
:extrafuns ((gtINDEX28  BitVec[32]))
:extrafuns ((gtINDEX27  BitVec[32]))
:extrafuns ((gtINDEX26  BitVec[32]))
:extrafuns ((gtINDEX24  BitVec[32]))
:extrafuns ((gtINDEX25  BitVec[32]))
:extrafuns ((gtINDEX22  BitVec[32]))
:extrafuns ((gtINDEX23  BitVec[32]))
:extrafuns ((gtINDEX20  BitVec[32]))
:extrafuns ((gtINDEX21  BitVec[32]))
:extrafuns ((gtINDEX18  BitVec[32]))
:extrafuns ((gtINDEX19  BitVec[32]))
:extrafuns ((gtINDEX16  BitVec[32]))
:extrafuns ((gtINDEX17  BitVec[32]))
:extrafuns ((gtINDEX14  BitVec[32]))
:extrafuns ((gtINDEX15  BitVec[32]))
:extrafuns ((gtINDEX12  BitVec[32]))
:extrafuns ((gtINDEX13  BitVec[32]))
:extrafuns ((gtINDEX10  BitVec[32]))
:extrafuns ((gtINDEX11  BitVec[32]))
:extrafuns ((gtINDEX8  BitVec[32]))
:extrafuns ((gtINDEX9  BitVec[32]))
:extrafuns ((gtINDEX7  BitVec[32]))
:extrafuns ((gtINDEX6  BitVec[32]))
:extrafuns ((gtINDEX4  BitVec[32]))
:extrafuns ((gtINDEX5  BitVec[32]))
:extrafuns ((gtINDEX2  BitVec[32]))
:extrafuns ((gtINDEX3  BitVec[32]))
:extrafuns ((gtINDEX0  BitVec[32]))
:extrafuns ((gtINDEX1  BitVec[32]))
:extrafuns ((gtFIELD__is_Eng__gtAGG____anonstruct_bitsForTID0_5_1_  Array[32:1]))
:extrafuns ((gtFIELD__is_Eng__gtAGG____anonstruct_bitsForTID0_5_2_  Array[32:1]))
:extrafuns ((sf_previousEvent_1_  BitVec[32]))
:extrafuns ((sfEvent__2_  BitVec[32]))
:extrafuns ((gtFIELD__is_Eng__gtAGG____anonstruct_bitsForTID0_5  Array[32:1]))
:extrafuns ((gtFIELD__sent__gtAGG____anonstruct_D_Work_4_1_  Array[32:32]))
:extrafuns ((gtFIELD__sent__gtAGG____anonstruct_D_Work_4_2_  Array[32:32]))
:extrafuns ((gtFIELD__is_active_Eng__gtAGG____anonstruct_bitsForTID0_5  Array[32:1]))
:extrafuns ((sfEvent__1_  BitVec[32]))
:extrafuns ((gtFIELD__is_PURI__gtAGG____anonstruct_bitsForTID0_5  Array[32:2]))
:extrafuns ((gtFIELD__is_active_PURI__gtAGG____anonstruct_bitsForTID0_5  Array[32:1]))
:extrafuns ((gtFIELD__is_PVRP__gtAGG____anonstruct_bitsForTID0_5  Array[32:2]))
:extrafuns ((gtFIELD__is_active_PVRP__gtAGG____anonstruct_bitsForTID0_5  Array[32:1]))
:extrafuns ((gtFIELD__is_active_PPVARP__gtAGG____anonstruct_bitsForTID0_5  Array[32:1]))
:extrafuns ((gtFIELD__is_active_PLRI__gtAGG____anonstruct_bitsForTID0_5  Array[32:1]))
:extrafuns ((gtFIELD__is_PAVI__gtAGG____anonstruct_bitsForTID0_5  Array[32:3]))
:extrafuns ((gtFIELD__is_active_PAVI__gtAGG____anonstruct_bitsForTID0_5  Array[32:1]))
:extrafuns ((sfEvent_  BitVec[32]))
:extrafuns ((gtFIELD__sent__gtAGG____anonstruct_D_Work_4  Array[32:32]))
:extrapreds ((constraint126 ))
:extrapreds ((constraint125 ))
:extrapreds ((constraint124 ))
:extrapreds ((constraint123 ))
:extrapreds ((constraint122 ))
:extrapreds ((constraint121 ))
:extrapreds ((constraint120 ))
:extrapreds ((constraint119 ))
:extrapreds ((constraint118 ))
:extrapreds ((constraint117 ))
:extrapreds ((constraint116 ))
:extrapreds ((constraint115 ))
:extrapreds ((constraint114 ))
:extrapreds ((constraint113 ))
:extrapreds ((constraint112 ))
:extrapreds ((constraint111 ))
:extrapreds ((constraint110 ))
:extrapreds ((constraint109 ))
:extrapreds ((constraint108 ))
:extrapreds ((constraint107 ))
:extrapreds ((constraint106 ))
:extrapreds ((constraint105 ))
:extrapreds ((constraint104 ))
:extrapreds ((constraint103 ))
:extrapreds ((constraint102 ))
:extrapreds ((constraint101 ))
:extrapreds ((constraint100 ))
:extrapreds ((constraint99 ))
:extrapreds ((constraint98 ))
:extrapreds ((constraint97 ))
:extrapreds ((constraint96 ))
:extrapreds ((constraint95 ))
:extrapreds ((constraint94 ))
:extrapreds ((constraint93 ))
:extrapreds ((constraint92 ))
:extrapreds ((constraint91 ))
:extrapreds ((constraint90 ))
:extrapreds ((constraint89 ))
:extrapreds ((constraint88 ))
:extrapreds ((constraint87 ))
:extrapreds ((constraint86 ))
:extrapreds ((constraint85 ))
:extrapreds ((constraint84 ))
:extrapreds ((constraint83 ))
:extrapreds ((constraint82 ))
:extrapreds ((constraint81 ))
:extrapreds ((constraint80 ))
:extrapreds ((constraint79 ))
:extrapreds ((constraint78 ))
:extrapreds ((constraint77 ))
:extrapreds ((constraint76 ))
:extrapreds ((constraint75 ))
:extrapreds ((constraint74 ))
:extrapreds ((constraint73 ))
:extrapreds ((constraint72 ))
:extrapreds ((constraint71 ))
:extrapreds ((constraint70 ))
:extrapreds ((constraint69 ))
:extrapreds ((constraint68 ))
:extrapreds ((constraint67 ))
:extrapreds ((constraint66 ))
:extrapreds ((constraint65 ))
:extrapreds ((constraint64 ))
:extrapreds ((constraint63 ))
:extrapreds ((constraint62 ))
:extrapreds ((constraint61 ))
:extrapreds ((constraint60 ))
:extrapreds ((constraint59 ))
:extrapreds ((constraint58 ))
:extrapreds ((constraint57 ))
:extrapreds ((constraint56 ))
:extrapreds ((constraint55 ))
:extrapreds ((constraint54 ))
:extrapreds ((constraint53 ))
:extrapreds ((constraint52 ))
:extrapreds ((constraint51 ))
:extrapreds ((constraint50 ))
:extrapreds ((constraint49 ))
:extrapreds ((constraint48 ))
:extrapreds ((constraint47 ))
:extrapreds ((constraint46 ))
:extrapreds ((constraint45 ))
:extrapreds ((constraint44 ))
:extrapreds ((constraint43 ))
:extrapreds ((constraint42 ))
:extrapreds ((constraint41 ))
:extrapreds ((constraint40 ))
:extrapreds ((constraint39 ))
:extrapreds ((constraint38 ))
:extrapreds ((constraint37 ))
:extrapreds ((constraint36 ))
:extrapreds ((constraint35 ))
:extrapreds ((constraint34 ))
:extrapreds ((constraint33 ))
:extrapreds ((constraint32 ))
:extrapreds ((constraint31 ))
:extrapreds ((constraint30 ))
:extrapreds ((constraint29 ))
:extrapreds ((constraint28 ))
:extrapreds ((constraint27 ))
:extrapreds ((constraint26 ))
:extrapreds ((constraint25 ))
:extrapreds ((constraint24 ))
:extrapreds ((constraint23 ))
:extrapreds ((constraint22 ))
:extrapreds ((constraint21 ))
:extrapreds ((constraint20 ))
:extrapreds ((constraint19 ))
:extrapreds ((constraint18 ))
:extrapreds ((constraint17 ))
:extrapreds ((constraint16 ))
:extrapreds ((constraint15 ))
:extrapreds ((constraint14 ))
:extrapreds ((constraint13 ))
:extrapreds ((constraint12 ))
:extrapreds ((constraint11 ))
:extrapreds ((constraint10 ))
:extrapreds ((constraint9 ))
:extrapreds ((constraint8 ))
:extrapreds ((constraint7 ))
:extrapreds ((constraint6 ))
:extrapreds ((constraint5 ))
:extrapreds ((constraint4 ))
:extrapreds ((constraint3 ))
:extrapreds ((constraint2 ))
:extrapreds ((constraint1 ))
:extrapreds ((constraint0 ))
:formula
(flet ($x636 (and constraint0 constraint1 constraint2 constraint3 constraint4 constraint5 constraint6 constraint7 constraint8 constraint9 constraint10 constraint11 constraint12 constraint13 constraint14 constraint15 constraint16 constraint17 constraint18 constraint19 constraint20 constraint21 constraint22 constraint23 constraint24 constraint25 constraint26 constraint27 constraint28 constraint29 constraint30 constraint31 constraint32 constraint33 constraint34 constraint35 constraint36 constraint37 constraint38 constraint39 constraint40 constraint41 constraint42 constraint43 constraint44 constraint45 constraint46 constraint47 constraint48 constraint49 constraint50 constraint51 constraint52 constraint53 constraint54 constraint55 constraint56 constraint57 constraint58 constraint59 constraint60 constraint61 constraint62 constraint63 constraint64 constraint65 constraint66 constraint67 constraint68 constraint69 constraint70 constraint71 constraint72 constraint73 constraint74 constraint75 constraint76 constraint77 constraint78 constraint79 constraint80 constraint81 constraint82 constraint83 constraint84 constraint85 constraint86 constraint87 constraint88 constraint89 constraint90 constraint91 constraint92 constraint93 constraint94 constraint95 constraint96 constraint97 constraint98 constraint99 constraint100 constraint101 constraint102 constraint103 constraint104 constraint105 constraint106 constraint107 constraint108 constraint109 constraint110 constraint111 constraint112 constraint113 constraint114 constraint115 constraint116 constraint117 constraint118 constraint119 constraint120 constraint121 constraint122 constraint123 constraint124 constraint125 constraint126))
(flet ($x380 (= gtINDEX69 (select gtFIELD__bitsForTID0__gtAGG____anonstruct_D_Work_4 gtINDEX68)))
(flet ($x376 (= gtINDEX67 (select gtFIELD__bitsForTID0__gtAGG____anonstruct_D_Work_4 gtINDEX66)))
(flet ($x372 (= gtINDEX65 (select gtFIELD__bitsForTID0__gtAGG____anonstruct_D_Work_4 gtINDEX64)))
(flet ($x368 (= gtINDEX63 (select gtFIELD__bitsForTID0__gtAGG____anonstruct_D_Work_4 gtINDEX62)))
(flet ($x360 (= gtINDEX57 (select gtFIELD__bitsForTID0__gtAGG____anonstruct_D_Work_4 gtINDEX56)))
(flet ($x356 (= gtINDEX55 (select gtFIELD__bitsForTID0__gtAGG____anonstruct_D_Work_4 gtINDEX54)))
(flet ($x352 (= gtINDEX53 (select gtFIELD__bitsForTID0__gtAGG____anonstruct_D_Work_4 gtINDEX52)))
(flet ($x348 (= gtINDEX51 (select gtFIELD__bitsForTID0__gtAGG____anonstruct_D_Work_4 gtINDEX50)))
(flet ($x344 (= gtINDEX49 (select gtFIELD__bitsForTID0__gtAGG____anonstruct_D_Work_4 gtINDEX48)))
(flet ($x340 (= gtINDEX47 (select gtFIELD__bitsForTID0__gtAGG____anonstruct_D_Work_4 gtINDEX46)))
(flet ($x336 (= gtINDEX45 (select gtFIELD__bitsForTID0__gtAGG____anonstruct_D_Work_4 gtINDEX44)))
(flet ($x332 (= gtINDEX43 (select gtFIELD__bitsForTID0__gtAGG____anonstruct_D_Work_4 gtINDEX42)))
(flet ($x328 (= gtINDEX41 (select gtFIELD__bitsForTID0__gtAGG____anonstruct_D_Work_4 gtINDEX40)))
(flet ($x322 (= gtINDEX37 (select gtFIELD__bitsForTID0__gtAGG____anonstruct_D_Work_4 gtINDEX36)))
(flet ($x318 (= gtINDEX35 (select gtFIELD__bitsForTID0__gtAGG____anonstruct_D_Work_4 gtINDEX34)))
(flet ($x314 (= gtINDEX33 (select gtFIELD__bitsForTID0__gtAGG____anonstruct_D_Work_4 gtINDEX32)))
(flet ($x304 (= gtINDEX25 (select gtFIELD__bitsForTID0__gtAGG____anonstruct_D_Work_4 gtINDEX24)))
(flet ($x300 (= gtINDEX23 (select gtFIELD__bitsForTID0__gtAGG____anonstruct_D_Work_4 gtINDEX22)))
(flet ($x296 (= gtINDEX21 (select gtFIELD__bitsForTID0__gtAGG____anonstruct_D_Work_4 gtINDEX20)))
(flet ($x292 (= gtINDEX19 (select gtFIELD__bitsForTID0__gtAGG____anonstruct_D_Work_4 gtINDEX18)))
(flet ($x288 (= gtINDEX17 (select gtFIELD__bitsForTID0__gtAGG____anonstruct_D_Work_4 gtINDEX16)))
(flet ($x284 (= gtINDEX15 (select gtFIELD__bitsForTID0__gtAGG____anonstruct_D_Work_4 gtINDEX14)))
(flet ($x280 (= gtINDEX13 (select gtFIELD__bitsForTID0__gtAGG____anonstruct_D_Work_4 gtINDEX12)))
(flet ($x276 (= gtINDEX11 (select gtFIELD__bitsForTID0__gtAGG____anonstruct_D_Work_4 gtINDEX10)))
(flet ($x272 (= gtINDEX9 (select gtFIELD__bitsForTID0__gtAGG____anonstruct_D_Work_4 gtINDEX8)))
(flet ($x266 (= gtINDEX5 (select gtFIELD__bitsForTID0__gtAGG____anonstruct_D_Work_4 gtINDEX4)))
(flet ($x262 (= gtINDEX3 (select gtFIELD__bitsForTID0__gtAGG____anonstruct_D_Work_4 gtINDEX2)))
(flet ($x258 (= gtINDEX1 (select gtFIELD__bitsForTID0__gtAGG____anonstruct_D_Work_4 gtINDEX0)))
(let (?x242 (extract[0:0] bv1[32]))
(let (?x252 (store gtFIELD__is_Eng__gtAGG____anonstruct_bitsForTID0_5_1_ gtINDEX69 ?x242))
(flet ($x494 (iff constraint56 (= gtFIELD__is_Eng__gtAGG____anonstruct_bitsForTID0_5_2_ ?x252)))
(let (?x248 (select gtFIELD__is_Eng__gtAGG____anonstruct_bitsForTID0_5_1_ gtINDEX67))
(let (?x243 (store gtFIELD__is_Eng__gtAGG____anonstruct_bitsForTID0_5 gtINDEX65 ?x242))
(flet ($x488 (iff constraint53 (= gtFIELD__is_Eng__gtAGG____anonstruct_bitsForTID0_5_1_ ?x243)))
(let (?x239 (zero_extend[31] (select gtFIELD__is_Eng__gtAGG____anonstruct_bitsForTID0_5 gtINDEX63)))
(let (?x235 (store gtFIELD__sent__gtAGG____anonstruct_D_Work_4_1_ gtINDEX61 bv0[32]))
(flet ($x484 (iff constraint51 (= gtFIELD__sent__gtAGG____anonstruct_D_Work_4_2_ ?x235)))
(let (?x131 (bvmul bv4294967295[32] bv1[32]))
(flet ($x233 (= (select gtFIELD__sent__gtAGG____anonstruct_D_Work_4_1_ gtINDEX60) ?x131))
(flet ($x229 (= (select gtFIELD__sent__gtAGG____anonstruct_D_Work_4_1_ gtINDEX59) bv9[32]))
(flet ($x225 (= (select gtFIELD__sent__gtAGG____anonstruct_D_Work_4_1_ gtINDEX58) bv4[32]))
(let (?x221 (zero_extend[31] (select gtFIELD__is_Eng__gtAGG____anonstruct_bitsForTID0_5 gtINDEX57)))
(let (?x215 (select gtFIELD__is_active_Eng__gtAGG____anonstruct_bitsForTID0_5 gtINDEX55))
(let (?x211 (select gtFIELD__is_PURI__gtAGG____anonstruct_bitsForTID0_5 gtINDEX53))
(let (?x206 (select gtFIELD__is_PURI__gtAGG____anonstruct_bitsForTID0_5 gtINDEX51))
(let (?x201 (select gtFIELD__is_active_PURI__gtAGG____anonstruct_bitsForTID0_5 gtINDEX49))
(let (?x193 (select gtFIELD__is_PVRP__gtAGG____anonstruct_bitsForTID0_5 gtINDEX47))
(let (?x188 (select gtFIELD__is_active_PVRP__gtAGG____anonstruct_bitsForTID0_5 gtINDEX45))
(let (?x182 (select gtFIELD__is_active_PPVARP__gtAGG____anonstruct_bitsForTID0_5 gtINDEX43))
(let (?x176 (select gtFIELD__is_active_PLRI__gtAGG____anonstruct_bitsForTID0_5 gtINDEX41))
(flet ($x171 (= (select gtFIELD__sent__gtAGG____anonstruct_D_Work_4_1_ gtINDEX39) bv0[32]))
(flet ($x167 (= (select gtFIELD__sent__gtAGG____anonstruct_D_Work_4_1_ gtINDEX38) bv0[32]))
(let (?x162 (select gtFIELD__is_PAVI__gtAGG____anonstruct_bitsForTID0_5 gtINDEX37))
(let (?x157 (select gtFIELD__is_PAVI__gtAGG____anonstruct_bitsForTID0_5 gtINDEX35))
(let (?x152 (select gtFIELD__is_active_PAVI__gtAGG____anonstruct_bitsForTID0_5 gtINDEX33))
(flet ($x143 (= gtFIELD__sent__gtAGG____anonstruct_D_Work_4_1_ (store gtFIELD__sent__gtAGG____anonstruct_D_Work_4 gtINDEX31 ?x131)))
(flet ($x140 (= (select gtFIELD__sent__gtAGG____anonstruct_D_Work_4 gtINDEX30) bv2[32]))
(flet ($x136 (= (select gtFIELD__sent__gtAGG____anonstruct_D_Work_4 gtINDEX29) bv1[32]))
(flet ($x132 (= (select gtFIELD__sent__gtAGG____anonstruct_D_Work_4 gtINDEX28) ?x131))
(flet ($x126 (= (select gtFIELD__sent__gtAGG____anonstruct_D_Work_4 gtINDEX27) bv9[32]))
(flet ($x121 (= (select gtFIELD__sent__gtAGG____anonstruct_D_Work_4 gtINDEX26) bv4[32]))
(let (?x117 (zero_extend[31] (select gtFIELD__is_Eng__gtAGG____anonstruct_bitsForTID0_5 gtINDEX25)))
(let (?x111 (select gtFIELD__is_active_Eng__gtAGG____anonstruct_bitsForTID0_5 gtINDEX23))
(let (?x107 (select gtFIELD__is_PURI__gtAGG____anonstruct_bitsForTID0_5 gtINDEX21))
(let (?x102 (select gtFIELD__is_PURI__gtAGG____anonstruct_bitsForTID0_5 gtINDEX19))
(let (?x97 (select gtFIELD__is_active_PURI__gtAGG____anonstruct_bitsForTID0_5 gtINDEX17))
(let (?x88 (select gtFIELD__is_PVRP__gtAGG____anonstruct_bitsForTID0_5 gtINDEX15))
(let (?x83 (select gtFIELD__is_active_PVRP__gtAGG____anonstruct_bitsForTID0_5 gtINDEX13))
(let (?x77 (select gtFIELD__is_active_PPVARP__gtAGG____anonstruct_bitsForTID0_5 gtINDEX11))
(let (?x71 (select gtFIELD__is_active_PLRI__gtAGG____anonstruct_bitsForTID0_5 gtINDEX9))
(flet ($x65 (= (select gtFIELD__sent__gtAGG____anonstruct_D_Work_4 gtINDEX7) bv0[32]))
(flet ($x61 (= (select gtFIELD__sent__gtAGG____anonstruct_D_Work_4 gtINDEX6) bv0[32]))
(let (?x56 (zero_extend[29] (select gtFIELD__is_PAVI__gtAGG____anonstruct_bitsForTID0_5 gtINDEX5)))
(let (?x50 (zero_extend[29] (select gtFIELD__is_PAVI__gtAGG____anonstruct_bitsForTID0_5 gtINDEX3)))
(let (?x43 (select gtFIELD__is_active_PAVI__gtAGG____anonstruct_bitsForTID0_5 gtINDEX1))
(flet ($x635 (and (iff constraint0 (not (= sfEvent_ bv8[32]))) (iff constraint1 (not (= (zero_extend[31] ?x43) bv0[32]))) (iff constraint2 (not (= ?x50 bv1[32]))) (iff constraint3 (= ?x56 bv2[32])) (iff constraint4 (not $x61)) (iff constraint5 (not $x65)) (iff constraint6 (not (= sfEvent_ bv5[32]))) (iff constraint7 (not (not (= (zero_extend[31] ?x71) bv0[32])))) (iff constraint8 (not (not (= (zero_extend[31] ?x77) bv0[32])))) (iff constraint9 (not (= (zero_extend[31] ?x83) bv0[32]))) (iff constraint10 (= (zero_extend[30] ?x88) bv1[32])) (iff constraint11 (not (= sfEvent_ bv0[32]))) (iff constraint12 (not (= sfEvent_ bv4[32]))) (iff constraint13 (not (= (zero_extend[31] ?x97) bv0[32]))) (iff constraint14 (not (= (zero_extend[30] ?x102) bv1[32]))) (iff constraint15 (= (zero_extend[30] ?x107) bv2[32])) (iff constraint16 (not (= sfEvent_ bv4[32]))) (iff constraint17 (not (= sfEvent_ bv5[32]))) (iff constraint18 (not (= (zero_extend[31] ?x111) bv0[32]))) (iff constraint19 (= ?x117 bv1[32])) (iff constraint20 (not $x121)) (iff constraint21 (not $x126)) (iff constraint22 (not $x132)) (iff constraint23 (not $x136)) (iff constraint24 $x140) (iff constraint25 $x143) (iff constraint26 (= sf_previousEvent_1_ sfEvent_)) (iff constraint27 (= sfEvent__1_ bv3[32])) (iff constraint28 (not (= sfEvent__1_ bv8[32]))) (iff constraint29 (not (= (zero_extend[31] ?x152) bv0[32]))) (iff constraint30 (not (= (zero_extend[29] ?x157) bv1[32]))) (iff constraint31 (= (zero_extend[29] ?x162) bv2[32])) (iff constraint32 (not $x167)) (iff constraint33 (not $x171)) (iff constraint34 (not (= sfEvent__1_ bv5[32]))) (iff constraint35 (not (not (= (zero_extend[31] ?x176) bv0[32])))) (iff constraint36 (not (not (= (zero_extend[31] ?x182) bv0[32])))) (iff constraint37 (not (= (zero_extend[31] ?x188) bv0[32]))) (iff constraint38 (= (zero_extend[30] ?x193) bv1[32])) (iff constraint39 (not (= sfEvent__1_ bv0[32]))) (iff constraint40 (not (= sfEvent__1_ bv4[32]))) (iff constraint41 (not (= (zero_extend[31] ?x201) bv0[32]))) (iff constraint42 (not (= (zero_extend[30] ?x206) bv1[32]))) (iff constraint43 (= (zero_extend[30] ?x211) bv2[32])) (iff constraint44 (not (= sfEvent__1_ bv4[32]))) (iff constraint45 (not (= sfEvent__1_ bv5[32]))) (iff constraint46 (not (= (zero_extend[31] ?x215) bv0[32]))) (iff constraint47 (= ?x221 bv1[32])) (iff constraint48 (not $x225)) (iff constraint49 (not $x229)) (iff constraint50 $x233) $x484 (iff constraint52 (= ?x239 bv1[32])) $x488 (iff constraint54 (= sfEvent__2_ sf_previousEvent_1_)) (iff constraint55 (= (zero_extend[31] ?x248) bv1[32])) $x494 (iff constraint57 (= gtINDEX0 gtAGG__rtDWork)) (iff constraint58 $x258) (iff constraint59 (= gtINDEX2 gtAGG__rtDWork)) (iff constraint60 $x262) (iff constraint61 (= gtINDEX4 gtAGG__rtDWork)) (iff constraint62 $x266) (iff constraint63 (= gtINDEX6 gtAGG__rtDWork)) (iff constraint64 (= gtINDEX7 gtAGG__rtDWork)) (iff constraint65 (= gtINDEX8 gtAGG__rtDWork)) (iff constraint66 $x272) (iff constraint67 (= gtINDEX10 gtAGG__rtDWork)) (iff constraint68 $x276) (iff constraint69 (= gtINDEX12 gtAGG__rtDWork)) (iff constraint70 $x280) (iff constraint71 (= gtINDEX14 gtAGG__rtDWork)) (iff constraint72 $x284) (iff constraint73 (= gtINDEX16 gtAGG__rtDWork)) (iff constraint74 $x288) (iff constraint75 (= gtINDEX18 gtAGG__rtDWork)) (iff constraint76 $x292) (iff constraint77 (= gtINDEX20 gtAGG__rtDWork)) (iff constraint78 $x296) (iff constraint79 (= gtINDEX22 gtAGG__rtDWork)) (iff constraint80 $x300) (iff constraint81 (= gtINDEX24 gtAGG__rtDWork)) (iff constraint82 $x304) (iff constraint83 (= gtINDEX26 gtAGG__rtDWork)) (iff constraint84 (= gtINDEX27 gtAGG__rtDWork)) (iff constraint85 (= gtINDEX28 gtAGG__rtDWork)) (iff constraint86 (= gtINDEX29 gtAGG__rtDWork)) (iff constraint87 (= gtINDEX30 gtAGG__rtDWork)) (iff constraint88 (= gtINDEX31 gtAGG__rtDWork)) (iff constraint89 (= gtINDEX32 gtAGG__rtDWork)) (iff constraint90 $x314) (iff constraint91 (= gtINDEX34 gtAGG__rtDWork)) (iff constraint92 $x318) (iff constraint93 (= gtINDEX36 gtAGG__rtDWork)) (iff constraint94 $x322) (iff constraint95 (= gtINDEX38 gtAGG__rtDWork)) (iff constraint96 (= gtINDEX39 gtAGG__rtDWork)) (iff constraint97 (= gtINDEX40 gtAGG__rtDWork)) (iff constraint98 $x328) (iff constraint99 (= gtINDEX42 gtAGG__rtDWork)) (iff constraint100 $x332) (iff constraint101 (= gtINDEX44 gtAGG__rtDWork)) (iff constraint102 $x336) (iff constraint103 (= gtINDEX46 gtAGG__rtDWork)) (iff constraint104 $x340) (iff constraint105 (= gtINDEX48 gtAGG__rtDWork)) (iff constraint106 $x344) (iff constraint107 (= gtINDEX50 gtAGG__rtDWork)) (iff constraint108 $x348) (iff constraint109 (= gtINDEX52 gtAGG__rtDWork)) (iff constraint110 $x352) (iff constraint111 (= gtINDEX54 gtAGG__rtDWork)) (iff constraint112 $x356) (iff constraint113 (= gtINDEX56 gtAGG__rtDWork)) (iff constraint114 $x360) (iff constraint115 (= gtINDEX58 gtAGG__rtDWork)) (iff constraint116 (= gtINDEX59 gtAGG__rtDWork)) (iff constraint117 (= gtINDEX60 gtAGG__rtDWork)) (iff constraint118 (= gtINDEX61 gtAGG__rtDWork)) (iff constraint119 (= gtINDEX62 gtAGG__rtDWork)) (iff constraint120 $x368) (iff constraint121 (= gtINDEX64 gtAGG__rtDWork)) (iff constraint122 $x372) (iff constraint123 (= gtINDEX66 gtAGG__rtDWork)) (iff constraint124 $x376) (iff constraint125 (= gtINDEX68 gtAGG__rtDWork)) (iff constraint126 $x380)))
(and $x635 $x636))))))))))))))))))))))))))))))))))))))))))))))))))))))))))))))))))))))))))))))
)
